
Gurobi 9.5.1 (win64, Python) logging started Wed Jun 22 21:35:03 2022

Set parameter LogFile to value "gurobi.log"

Gurobi 9.5.1 (win64, Python) logging started Wed Jun 22 21:47:36 2022

Set parameter LogFile to value "gurobi.log"
